results/res_prop_muc/res_Cimatti_mathsat_cores/QF_UF/NEQ033_size5.smt.smt2.out

real	0m0.784s
user	0m0.655s
sys	0m0.030s
