results/res_prop_muc/res_Cimatti_mathsat_cores/QF_UF/NEQ033_size5.smt.smt2.res
unsat
( _c0
  _c2582
  _c2590
  _c2592
  _c2597
  _c283
  _c284
  _c285
  _c291
  _c293
  _c294
  _c295
  _c296
  _c299
  _c302
  _c303
  _c304
  _c305
  _c306
  _c307
  _c308
  _c309
  _c3151
  _c3152
  _c3153
  _c3154
  _c3155
  _c3313
  _c3314
  _c3315
  _c3316
  _c3317
  _c3664
  _c3665
  _c3668
  _c3670
  _c3672
  _c3674
  _c3676
  _c3678
  _c3679
  _c3680
  _c3684
  _c3685
  _c3686
  _c3689
  _c3690
  _c3691
  _c3692
  _c3693
  _c3695
  _c3696
  _c3697
  _c3698
  _c3699
  _c3701
  _c3702
  _c3703
  _c3704
  _c3705
  _c3707
  _c3708
  _c3709
  _c3710
  _c3711
  _c3739
  _c3741
  _c3743
  _c3747
  _c3751
  _c3757
  _c3760
  _c3764
  _c3765
  _c3768
  _c3769
  _c3773
  _c3775
  _c3779
  _c3780
  _c3781
  _c3785
  _c3799
  _c3800
  _c3801
  _c3802
  _c3808
  _c3816
  _c3840
  _c3841
  _c3842
  _c3843
  _c3844
  _c3890
  _c3891
  _c3892
  _c3893
  _c3894
  _c3895
  _c3896
  _c3897
  _c3898
  _c3899
  _c3900
  _c3901
  _c3902
  _c3905
  _c3906
  _c3907
  _c3908
  _c3909
  _c3910
  _c3911
  _c3912
  _c3913
  _c3914
  _c3916
  _c3917
  _c3918
  _c3919
  _c3920
  _c3921
  _c3922
  _c3923
  _c3924
  _c3925
  _c3926
  _c3927
  _c3928
  _c3929
  _c3930
  _c3931
  _c3932
  _c3934
  _c3935
  _c3936
  _c3937
  _c3938
  _c3939
  _c3941
  _c3942
  _c3943
  _c3944
  _c3945
  _c3946
  _c3947
  _c3948
  _c3949
  _c3950
  _c3951
  _c3952
  _c3953
  _c3954
  _c3955
  _c3956
  _c3957
  _c3958
  _c3959
  _c3960
  _c3961
  _c3962
  _c3963
  _c3964
  _c3967
  _c3968
  _c3969
  _c3970
  _c3971
  _c3972
  _c3973
  _c3974
  _c3975
  _c3976
  _c3978
  _c3980
  _c3981
  _c3982
  _c3983
  _c3984
  _c3985
  _c3986
  _c3987
  _c3988
  _c3989
  _c3990
  _c3991
  _c3993
  _c3994
  _c3995
  _c3998
  _c3999
  _c4000
  _c4001
  _c4003
  _c4004
  _c4005
  _c4006
  _c4007
  _c4009
  _c4010
  _c4011
  _c4012
  _c4013
  _c4014
  _c4040
  _c4041
  _c4042
  _c4043
  _c4044
  _c4306
  _c4307
  _c4308
  _c4309
  _c4310
  _c4312
  _c4313
  _c4314
  _c4315
  _c4316
  _c4318
  _c4319
  _c4320
  _c4321
  _c4322
  _c4325
  _c4327
  _c4328
  _c4335
  _c4336
  _c4337
  _c4338
  _c4340
  _c4341
  _c4342
  _c4345
  _c4346
  _c4350
  _c4505
  _c4506
  _c4507
  _c4508
  _c4509
  _c4706
  _c4707
  _c4708
  _c4709
  _c4710
  _c4711
  _c4712
  _c4713
  _c4714
  _c4715
  _c4716
  _c4717
  _c4718
  _c4719
  _c4720
  _c4721
  _c4722
  _c4723
  _c4724
  _c4725
  _c4726
  _c4727
  _c4728
  _c4729
  _c4730
  _c5226
  _c5227
  _c5234
  _c5235
  _c5236
  _c5237
  _c5238
  _c5239
  _c5240
  _c5241
  _c5242
  _c532
  _c538
  _c544
  _c550
  _c556
  _c723
  _c724
  _c725
  _c732
  _c733
  _c737
  _c742 )
